NAME: cuum980.tsp
TYPE: TSP
COMMENT: User-generated TSP file
DIMENSION: 980
EDGE_WEIGHT_TYPE: EUC_2D
NODE_COORD_SECTION
1 887.0 629.0
2 872.0 110.0
3 41.0 732.0
4 538.0 290.0
5 271.0 698.0
6 756.0 790.0
7 223.0 481.0
8 333.0 319.0
9 649.0 963.0
10 576.0 401.0
11 141.0 47.0
12 308.0 248.0
13 913.0 396.0
14 304.0 454.0
15 679.0 796.0
16 667.0 101.0
17 145.0 798.0
18 36.0 40.0
19 798.0 189.0
20 355.0 267.0
21 718.0 778.0
22 680.0 308.0
23 577.0 472.0
24 948.0 512.0
25 816.0 461.0
26 965.0 387.0
27 836.0 626.0
28 198.0 430.0
29 4.0 344.0
30 580.0 50.0
31 379.0 177.0
32 100.0 559.0
33 124.0 545.0
34 726.0 586.0
35 296.0 807.0
36 316.0 738.0
37 358.0 223.0
38 137.0 833.0
39 69.0 865.0
40 967.0 975.0
41 189.0 218.0
42 651.0 593.0
43 30.0 182.0
44 495.0 39.0
45 616.0 347.0
46 653.0 352.0
47 280.0 866.0
48 519.0 564.0
49 735.0 201.0
50 675.0 421.0
51 204.0 417.0
52 53.0 844.0
53 243.0 397.0
54 293.0 492.0
55 497.0 209.0
56 818.0 258.0
57 188.0 803.0
58 238.0 468.0
59 206.0 477.0
60 868.0 964.0
61 402.0 639.0
62 15.0 79.0
63 850.0 557.0
64 222.0 58.0
65 108.0 462.0
66 323.0 757.0
67 539.0 940.0
68 95.0 159.0
69 816.0 139.0
70 823.0 971.0
71 348.0 630.0
72 709.0 815.0
73 906.0 83.0
74 851.0 32.0
75 543.0 650.0
76 568.0 851.0
77 673.0 341.0
78 410.0 265.0
79 477.0 787.0
80 321.0 6.0
81 149.0 234.0
82 870.0 640.0
83 861.0 735.0
84 909.0 246.0
85 687.0 28.0
86 936.0 499.0
87 692.0 641.0
88 598.0 600.0
89 212.0 914.0
90 48.0 939.0
91 331.0 904.0
92 880.0 412.0
93 819.0 730.0
94 771.0 619.0
95 370.0 804.0
96 244.0 626.0
97 699.0 110.0
98 266.0 213.0
99 397.0 471.0
100 251.0 80.0
101 677.0 974.0
102 885.0 831.0
103 646.0 484.0
104 504.0 890.0
105 509.0 295.0
106 141.0 977.0
107 965.0 57.0
108 784.0 484.0
109 14.0 745.0
110 271.0 32.0
111 190.0 497.0
112 239.0 507.0
113 639.0 285.0
114 133.0 374.0
115 519.0 820.0
116 261.0 793.0
117 155.0 288.0
118 570.0 921.0
119 82.0 83.0
120 226.0 462.0
121 579.0 152.0
122 111.0 758.0
123 836.0 440.0
124 478.0 109.0
125 222.0 72.0
126 768.0 194.0
127 25.0 138.0
128 974.0 769.0
129 281.0 137.0
130 270.0 323.0
131 138.0 386.0
132 101.0 104.0
133 490.0 183.0
134 86.0 825.0
135 275.0 73.0
136 219.0 174.0
137 828.0 469.0
138 873.0 2.0
139 481.0 8.0
140 798.0 783.0
141 233.0 146.0
142 410.0 864.0
143 269.0 432.0
144 168.0 277.0
145 33.0 621.0
146 963.0 83.0
147 202.0 39.0
148 861.0 5.0
149 669.0 759.0
150 575.0 593.0
151 761.0 800.0
152 218.0 785.0
153 701.0 458.0
154 594.0 602.0
155 674.0 261.0
156 482.0 55.0
157 113.0 48.0
158 639.0 186.0
159 271.0 109.0
160 515.0 799.0
161 959.0 153.0
162 134.0 430.0
163 781.0 685.0
164 82.0 906.0
165 593.0 858.0
166 84.0 780.0
167 307.0 213.0
168 900.0 778.0
169 576.0 461.0
170 123.0 940.0
171 316.0 205.0
172 237.0 246.0
173 721.0 154.0
174 119.0 225.0
175 143.0 842.0
176 161.0 767.0
177 589.0 796.0
178 266.0 878.0
179 117.0 178.0
180 894.0 850.0
181 776.0 626.0
182 106.0 617.0
183 493.0 181.0
184 573.0 334.0
185 90.0 753.0
186 491.0 619.0
187 483.0 719.0
188 875.0 393.0
189 703.0 803.0
190 127.0 109.0
191 90.0 126.0
192 595.0 917.0
193 440.0 443.0
194 605.0 907.0
195 492.0 579.0
196 484.0 9.0
197 128.0 246.0
198 897.0 955.0
199 30.0 400.0
200 172.0 109.0
201 73.0 296.0
202 382.0 352.0
203 936.0 685.0
204 896.0 203.0
205 604.0 663.0
206 945.0 86.0
207 543.0 155.0
208 651.0 170.0
209 436.0 569.0
210 674.0 861.0
211 886.0 124.0
212 509.0 464.0
213 343.0 891.0
214 681.0 281.0
215 590.0 488.0
216 446.0 85.0
217 482.0 218.0
218 677.0 833.0
219 6.0 389.0
220 808.0 412.0
221 316.0 31.0
222 761.0 929.0
223 615.0 10.0
224 155.0 363.0
225 644.0 315.0
226 227.0 433.0
227 726.0 962.0
228 328.0 538.0
229 103.0 367.0
230 128.0 230.0
231 196.0 721.0
232 451.0 704.0
233 698.0 762.0
234 888.0 312.0
235 923.0 77.0
236 186.0 966.0
237 936.0 241.0
238 895.0 499.0
239 265.0 884.0
240 146.0 118.0
241 358.0 659.0
242 270.0 178.0
243 805.0 548.0
244 131.0 122.0
245 318.0 530.0
246 461.0 864.0
247 760.0 263.0
248 550.0 820.0
249 603.0 273.0
250 299.0 743.0
251 821.0 219.0
252 571.0 658.0
253 634.0 849.0
254 83.0 323.0
255 744.0 844.0
256 250.0 623.0
257 868.0 360.0
258 713.0 876.0
259 204.0 181.0
260 279.0 59.0
261 857.0 265.0
262 558.0 853.0
263 201.0 841.0
264 463.0 164.0
265 789.0 59.0
266 226.0 544.0
267 904.0 873.0
268 576.0 921.0
269 896.0 632.0
270 72.0 282.0
271 912.0 694.0
272 426.0 479.0
273 434.0 855.0
274 730.0 885.0
275 74.0 963.0
276 110.0 358.0
277 298.0 782.0
278 766.0 242.0
279 499.0 236.0
280 406.0 347.0
281 242.0 941.0
282 929.0 295.0
283 684.0 806.0
284 227.0 63.0
285 920.0 291.0
286 378.0 133.0
287 616.0 490.0
288 607.0 505.0
289 780.0 279.0
290 610.0 256.0
291 946.0 403.0
292 271.0 444.0
293 242.0 714.0
294 285.0 160.0
295 596.0 166.0
296 720.0 251.0
297 428.0 57.0
298 947.0 80.0
299 970.0 195.0
300 150.0 634.0
301 405.0 504.0
302 306.0 775.0
303 31.0 510.0
304 115.0 918.0
305 316.0 35.0
306 727.0 795.0
307 173.0 641.0
308 368.0 584.0
309 783.0 316.0
310 975.0 403.0
311 680.0 642.0
312 773.0 191.0
313 831.0 477.0
314 341.0 119.0
315 353.0 304.0
316 863.0 393.0
317 365.0 23.0
318 160.0 70.0
319 266.0 658.0
320 630.0 5.0
321 183.0 92.0
322 852.0 137.0
323 282.0 25.0
324 421.0 157.0
325 115.0 237.0
326 103.0 791.0
327 958.0 437.0
328 440.0 866.0
329 231.0 697.0
330 505.0 378.0
331 941.0 286.0
332 319.0 229.0
333 980.0 268.0
334 425.0 388.0
335 73.0 971.0
336 642.0 98.0
337 512.0 958.0
338 288.0 143.0
339 750.0 811.0
340 963.0 763.0
341 654.0 241.0
342 377.0 475.0
343 140.0 618.0
344 876.0 332.0
345 524.0 549.0
346 39.0 863.0
347 209.0 321.0
348 355.0 228.0
349 951.0 639.0
350 508.0 25.0
351 298.0 705.0
352 904.0 783.0
353 884.0 148.0
354 945.0 422.0
355 877.0 457.0
356 621.0 182.0
357 12.0 721.0
358 292.0 489.0
359 764.0 627.0
360 838.0 457.0
361 703.0 976.0
362 71.0 178.0
363 769.0 394.0
364 195.0 723.0
365 407.0 867.0
366 170.0 379.0
367 783.0 50.0
368 963.0 110.0
369 168.0 668.0
370 190.0 846.0
371 174.0 32.0
372 813.0 202.0
373 468.0 627.0
374 102.0 814.0
375 239.0 417.0
376 712.0 667.0
377 152.0 479.0
378 434.0 642.0
379 716.0 62.0
380 118.0 628.0
381 43.0 932.0
382 483.0 766.0
383 9.0 85.0
384 181.0 189.0
385 876.0 527.0
386 335.0 853.0
387 558.0 442.0
388 714.0 898.0
389 649.0 610.0
390 235.0 974.0
391 216.0 502.0
392 38.0 392.0
393 50.0 284.0
394 747.0 140.0
395 171.0 555.0
396 652.0 619.0
397 848.0 843.0
398 765.0 637.0
399 302.0 321.0
400 196.0 610.0
401 397.0 854.0
402 861.0 555.0
403 160.0 448.0
404 565.0 689.0
405 451.0 232.0
406 909.0 20.0
407 463.0 585.0
408 976.0 212.0
409 945.0 471.0
410 734.0 632.0
411 52.0 552.0
412 263.0 365.0
413 494.0 207.0
414 603.0 947.0
415 581.0 590.0
416 478.0 680.0
417 763.0 489.0
418 580.0 770.0
419 347.0 382.0
420 492.0 253.0
421 502.0 253.0
422 228.0 919.0
423 11.0 695.0
424 771.0 869.0
425 197.0 90.0
426 489.0 151.0
427 911.0 692.0
428 847.0 576.0
429 69.0 213.0
430 590.0 267.0
431 277.0 168.0
432 904.0 900.0
433 459.0 658.0
434 598.0 902.0
435 203.0 173.0
436 492.0 76.0
437 205.0 937.0
438 413.0 330.0
439 308.0 227.0
440 181.0 424.0
441 772.0 577.0
442 102.0 639.0
443 7.0 896.0
444 442.0 311.0
445 138.0 684.0
446 412.0 521.0
447 753.0 164.0
448 573.0 793.0
449 145.0 110.0
450 380.0 76.0
451 877.0 659.0
452 272.0 569.0
453 153.0 658.0
454 90.0 860.0
455 101.0 587.0
456 598.0 124.0
457 582.0 207.0
458 797.0 923.0
459 824.0 243.0
460 814.0 562.0
461 858.0 759.0
462 918.0 799.0
463 22.0 228.0
464 148.0 415.0
465 190.0 933.0
466 414.0 68.0
467 245.0 89.0
468 444.0 334.0
469 259.0 318.0
470 207.0 956.0
471 946.0 859.0
472 239.0 852.0
473 476.0 380.0
474 444.0 767.0
475 282.0 777.0
476 239.0 227.0
477 56.0 242.0
478 313.0 58.0
479 876.0 335.0
480 502.0 461.0
481 486.0 135.0
482 979.0 532.0
483 862.0 23.0
484 641.0 643.0
485 556.0 971.0
486 622.0 221.0
487 576.0 763.0
488 590.0 381.0
489 591.0 865.0
490 68.0 740.0
491 641.0 235.0
492 429.0 307.0
493 938.0 875.0
494 694.0 25.0
495 980.0 926.0
496 496.0 443.0
497 235.0 933.0
498 75.0 70.0
499 774.0 564.0
500 629.0 893.0
501 969.0 945.0
502 445.0 332.0
503 694.0 601.0
504 761.0 126.0
505 803.0 39.0
506 294.0 144.0
507 214.0 545.0
508 240.0 925.0
509 261.0 29.0
510 734.0 243.0
511 18.0 733.0
512 591.0 795.0
513 721.0 166.0
514 762.0 231.0
515 220.0 674.0
516 226.0 817.0
517 658.0 714.0
518 426.0 888.0
519 689.0 206.0
520 600.0 814.0
521 729.0 957.0
522 55.0 644.0
523 369.0 902.0
524 544.0 781.0
525 162.0 751.0
526 509.0 693.0
527 493.0 410.0
528 307.0 936.0
529 103.0 138.0
530 482.0 784.0
531 732.0 444.0
532 113.0 131.0
533 881.0 77.0
534 55.0 103.0
535 396.0 505.0
536 558.0 614.0
537 754.0 630.0
538 907.0 31.0
539 893.0 877.0
540 37.0 74.0
541 582.0 33.0
542 94.0 270.0
543 351.0 292.0
544 890.0 407.0
545 378.0 434.0
546 320.0 155.0
547 424.0 46.0
548 101.0 684.0
549 68.0 336.0
550 593.0 226.0
551 816.0 437.0
552 487.0 936.0
553 958.0 588.0
554 221.0 755.0
555 106.0 586.0
556 868.0 92.0
557 861.0 889.0
558 506.0 964.0
559 573.0 291.0
560 324.0 713.0
561 546.0 724.0
562 43.0 673.0
563 823.0 648.0
564 930.0 880.0
565 187.0 273.0
566 95.0 930.0
567 151.0 700.0
568 46.0 347.0
569 202.0 508.0
570 591.0 223.0
571 566.0 717.0
572 831.0 819.0
573 819.0 768.0
574 288.0 366.0
575 894.0 905.0
576 648.0 483.0
577 211.0 910.0
578 578.0 821.0
579 77.0 880.0
580 286.0 303.0
581 575.0 807.0
582 957.0 735.0
583 531.0 203.0
584 872.0 692.0
585 360.0 537.0
586 176.0 278.0
587 839.0 962.0
588 916.0 694.0
589 653.0 231.0
590 238.0 75.0
591 293.0 112.0
592 617.0 806.0
593 367.0 87.0
594 152.0 411.0
595 175.0 966.0
596 686.0 15.0
597 757.0 804.0
598 676.0 810.0
599 676.0 754.0
600 468.0 959.0
601 911.0 676.0
602 67.0 167.0
603 629.0 391.0
604 578.0 132.0
605 27.0 488.0
606 745.0 842.0
607 864.0 242.0
608 166.0 140.0
609 448.0 507.0
610 907.0 853.0
611 77.0 786.0
612 197.0 614.0
613 418.0 198.0
614 711.0 567.0
615 178.0 967.0
616 528.0 566.0
617 483.0 366.0
618 388.0 715.0
619 909.0 373.0
620 314.0 355.0
621 523.0 964.0
622 665.0 516.0
623 856.0 688.0
624 105.0 938.0
625 86.0 898.0
626 747.0 284.0
627 73.0 845.0
628 742.0 804.0
629 70.0 605.0
630 424.0 102.0
631 464.0 169.0
632 675.0 567.0
633 107.0 587.0
634 961.0 462.0
635 37.0 98.0
636 207.0 125.0
637 429.0 332.0
638 507.0 944.0
639 241.0 285.0
640 122.0 467.0
641 93.0 617.0
642 702.0 162.0
643 70.0 832.0
644 711.0 980.0
645 603.0 949.0
646 392.0 617.0
647 659.0 118.0
648 335.0 488.0
649 904.0 281.0
650 250.0 763.0
651 895.0 443.0
652 64.0 858.0
653 332.0 636.0
654 203.0 405.0
655 362.0 108.0
656 933.0 107.0
657 70.0 603.0
658 33.0 45.0
659 661.0 418.0
660 603.0 368.0
661 513.0 119.0
662 423.0 604.0
663 789.0 506.0
664 180.0 578.0
665 243.0 256.0
666 547.0 356.0
667 704.0 458.0
668 836.0 589.0
669 803.0 105.0
670 444.0 84.0
671 507.0 702.0
672 388.0 24.0
673 227.0 921.0
674 88.0 814.0
675 104.0 304.0
676 594.0 610.0
677 950.0 308.0
678 479.0 580.0
679 718.0 420.0
680 565.0 343.0
681 520.0 420.0
682 654.0 161.0
683 733.0 9.0
684 495.0 427.0
685 159.0 449.0
686 35.0 501.0
687 237.0 751.0
688 176.0 133.0
689 535.0 179.0
690 744.0 443.0
691 978.0 663.0
692 408.0 322.0
693 962.0 243.0
694 468.0 96.0
695 357.0 176.0
696 184.0 131.0
697 546.0 311.0
698 621.0 773.0
699 752.0 728.0
700 696.0 170.0
701 390.0 224.0
702 267.0 711.0
703 95.0 486.0
704 910.0 677.0
705 693.0 755.0
706 386.0 523.0
707 524.0 261.0
708 790.0 943.0
709 718.0 22.0
710 104.0 839.0
711 374.0 251.0
712 752.0 859.0
713 926.0 305.0
714 917.0 407.0
715 200.0 737.0
716 923.0 375.0
717 222.0 29.0
718 799.0 735.0
719 647.0 360.0
720 128.0 802.0
721 470.0 724.0
722 786.0 655.0
723 70.0 707.0
724 967.0 958.0
725 237.0 526.0
726 723.0 740.0
727 645.0 380.0
728 980.0 265.0
729 875.0 441.0
730 920.0 339.0
731 52.0 148.0
732 391.0 854.0
733 408.0 732.0
734 53.0 964.0
735 678.0 363.0
736 384.0 521.0
737 855.0 658.0
738 407.0 27.0
739 968.0 682.0
740 802.0 488.0
741 421.0 158.0
742 488.0 8.0
743 960.0 302.0
744 723.0 694.0
745 698.0 714.0
746 71.0 62.0
747 507.0 165.0
748 799.0 963.0
749 493.0 296.0
750 414.0 951.0
751 487.0 389.0
752 694.0 498.0
753 301.0 751.0
754 435.0 447.0
755 474.0 313.0
756 338.0 664.0
757 74.0 143.0
758 40.0 323.0
759 886.0 337.0
760 588.0 252.0
761 564.0 340.0
762 602.0 288.0
763 752.0 127.0
764 176.0 893.0
765 466.0 1.0
766 379.0 660.0
767 69.0 322.0
768 29.0 923.0
769 89.0 666.0
770 464.0 816.0
771 918.0 829.0
772 625.0 477.0
773 244.0 631.0
774 37.0 945.0
775 854.0 879.0
776 35.0 853.0
777 672.0 817.0
778 919.0 752.0
779 441.0 528.0
780 495.0 489.0
781 25.0 613.0
782 227.0 219.0
783 355.0 902.0
784 312.0 304.0
785 575.0 28.0
786 767.0 962.0
787 758.0 858.0
788 705.0 220.0
789 413.0 304.0
790 817.0 968.0
791 88.0 165.0
792 805.0 791.0
793 680.0 282.0
794 920.0 125.0
795 584.0 643.0
796 283.0 961.0
797 481.0 432.0
798 32.0 933.0
799 173.0 56.0
800 318.0 747.0
801 852.0 329.0
802 485.0 446.0
803 79.0 946.0
804 152.0 761.0
805 404.0 723.0
806 809.0 415.0
807 418.0 429.0
808 581.0 836.0
809 364.0 600.0
810 904.0 156.0
811 659.0 891.0
812 398.0 60.0
813 518.0 388.0
814 13.0 624.0
815 529.0 564.0
816 817.0 321.0
817 573.0 916.0
818 828.0 86.0
819 150.0 741.0
820 416.0 102.0
821 687.0 251.0
822 263.0 344.0
823 235.0 230.0
824 84.0 896.0
825 677.0 765.0
826 100.0 284.0
827 845.0 555.0
828 571.0 585.0
829 15.0 29.0
830 256.0 451.0
831 498.0 938.0
832 959.0 786.0
833 839.0 648.0
834 171.0 650.0
835 730.0 378.0
836 546.0 148.0
837 485.0 171.0
838 491.0 742.0
839 719.0 228.0
840 51.0 174.0
841 126.0 867.0
842 565.0 144.0
843 751.0 666.0
844 805.0 961.0
845 528.0 233.0
846 576.0 838.0
847 489.0 9.0
848 91.0 66.0
849 660.0 405.0
850 48.0 928.0
851 980.0 689.0
852 578.0 35.0
853 103.0 733.0
854 388.0 605.0
855 300.0 646.0
856 39.0 619.0
857 527.0 93.0
858 539.0 467.0
859 664.0 593.0
860 251.0 921.0
861 476.0 847.0
862 646.0 581.0
863 443.0 31.0
864 856.0 747.0
865 171.0 472.0
866 556.0 598.0
867 261.0 37.0
868 4.0 494.0
869 853.0 330.0
870 49.0 763.0
871 222.0 582.0
872 578.0 328.0
873 341.0 154.0
874 488.0 77.0
875 94.0 697.0
876 105.0 888.0
877 877.0 676.0
878 591.0 52.0
879 496.0 466.0
880 669.0 710.0
881 787.0 333.0
882 379.0 742.0
883 76.0 630.0
884 223.0 172.0
885 539.0 830.0
886 736.0 789.0
887 433.0 490.0
888 518.0 938.0
889 761.0 417.0
890 895.0 166.0
891 762.0 869.0
892 377.0 532.0
893 809.0 945.0
894 959.0 939.0
895 899.0 456.0
896 561.0 540.0
897 519.0 724.0
898 199.0 554.0
899 756.0 695.0
900 209.0 771.0
901 346.0 92.0
902 476.0 493.0
903 154.0 767.0
904 887.0 540.0
905 205.0 675.0
906 154.0 618.0
907 385.0 442.0
908 669.0 806.0
909 567.0 494.0
910 156.0 87.0
911 341.0 115.0
912 182.0 33.0
913 11.0 60.0
914 852.0 5.0
915 45.0 752.0
916 199.0 600.0
917 892.0 12.0
918 56.0 149.0
919 254.0 560.0
920 335.0 647.0
921 728.0 601.0
922 489.0 327.0
923 496.0 441.0
924 461.0 64.0
925 255.0 258.0
926 714.0 847.0
927 553.0 106.0
928 818.0 889.0
929 271.0 411.0
930 421.0 3.0
931 462.0 275.0
932 825.0 63.0
933 801.0 114.0
934 477.0 20.0
935 363.0 428.0
936 562.0 975.0
937 898.0 612.0
938 214.0 952.0
939 530.0 913.0
940 253.0 920.0
941 854.0 71.0
942 929.0 223.0
943 83.0 947.0
944 448.0 634.0
945 878.0 697.0
946 7.0 555.0
947 608.0 486.0
948 383.0 74.0
949 769.0 644.0
950 212.0 512.0
951 238.0 639.0
952 372.0 173.0
953 299.0 355.0
954 526.0 13.0
955 382.0 6.0
956 819.0 615.0
957 962.0 389.0
958 607.0 139.0
959 848.0 242.0
960 42.0 255.0
961 693.0 371.0
962 799.0 973.0
963 883.0 289.0
964 508.0 820.0
965 612.0 689.0
966 483.0 974.0
967 650.0 569.0
968 214.0 333.0
969 950.0 955.0
970 502.0 903.0
971 977.0 399.0
972 88.0 680.0
973 15.0 930.0
974 976.0 550.0
975 518.0 695.0
976 568.0 171.0
977 463.0 798.0
978 915.0 957.0
979 403.0 693.0
980 588.0 655.0
EOF





